Route #1: 1 47 51 15 5 36 50 2 37 41 65 35 33 1
Route #2: 1 6 14 29 59 13 56 55 1
Route #3: 1 64 26 22 49 10 57 16 46 1
Route #4: 1 53 23 24 38 66 9 30 1
Route #5: 1 18 39 11 28 42 17 44 67 60 1
Route #6: 1 48 34 19 32 27 3 1
Route #7: 1 7 43 45 54 40 1
Route #8: 1 12 20 21 8 25 1
Route #9: 1 62 63 58 31 4 61 1
Route #10: 1 52 1
cost 1258.18900386326
